	Costo	Iter.	Tiempo
1	546,34	207	33,124
2	866,09	284	171,484
3	859,98	189	279,624
4	1093,49	85	301,452
5	1422,68	47	303,187
6	562,01	161	58,296
7	947,6	45	301,655
8	935,75	48	300,718
9	1288,03	3	312,577
10	1583,13	2	424,734
11	1241,87	175	301,17
12	853,09	124	113,532
13	1668,71	155	262,703
14	879,18	196	169,578
